NAME          
ROWS
 N  OBJ
 L  c1
 L  c2
 L  c3
 L  c4
 L  c5
COLUMNS
    MARKER    'MARKER'                 'INTORG'
    x[1]      c1        161
    x[1]      c2        241
    x[1]      c3        413
    x[1]      c4        746
    x[1]      c5        875
    x[1]      OBJ       -90
    x[2]      c1        535
    x[2]      c2        735
    x[2]      c3        817
    x[2]      c4        249
    x[2]      c5        112
    x[2]      OBJ       -979
    x[3]      c1        640
    x[3]      c2        235
    x[3]      c3        460
    x[3]      c4        157
    x[3]      c5        343
    x[3]      OBJ       -345
    x[4]      c1        667
    x[4]      c2        113
    x[4]      c3        280
    x[4]      c4        802
    x[4]      c5        966
    x[4]      OBJ       -455
    x[5]      c1        937
    x[5]      c2        480
    x[5]      c3        421
    x[5]      c4        767
    x[5]      c5        504
    x[5]      OBJ       -702
    x[6]      c1        475
    x[6]      c2        600
    x[6]      c3        678
    x[6]      c4        272
    x[6]      c5        539
    x[6]      OBJ       -654
    x[7]      c1        669
    x[7]      c2        213
    x[7]      c3        606
    x[7]      c4        392
    x[7]      c5        494
    x[7]      OBJ       -971
    x[8]      c1        827
    x[8]      c2        869
    x[8]      c3        245
    x[8]      c4        842
    x[8]      c5        446
    x[8]      OBJ       -917
    x[9]      c1        836
    x[9]      c2        94
    x[9]      c3        625
    x[9]      c4        958
    x[9]      c5        540
    x[9]      OBJ       -970
    x[10]     c1        882
    x[10]     c2        479
    x[10]     c3        928
    x[10]     c4        108
    x[10]     c5        778
    x[10]     OBJ       -589
    x[11]     c1        328
    x[11]     c2        113
    x[11]     c3        725
    x[11]     c4        565
    x[11]     c5        219
    x[11]     OBJ       -328
    x[12]     c1        939
    x[12]     c2        162
    x[12]     c3        340
    x[12]     c4        307
    x[12]     c5        404
    x[12]     OBJ       -406
    x[13]     c1        37
    x[13]     c2        844
    x[13]     c3        837
    x[13]     c4        941
    x[13]     c5        426
    x[13]     OBJ       -370
    x[14]     c1        999
    x[14]     c2        325
    x[14]     c3        922
    x[14]     c4        541
    x[14]     c5        100
    x[14]     OBJ       -281
    x[15]     c1        879
    x[15]     c2        705
    x[15]     c3        442
    x[15]     c4        90
    x[15]     c5        284
    x[15]     OBJ       -656
    x[16]     c1        116
    x[16]     c2        190
    x[16]     c3        862
    x[16]     c4        680
    x[16]     c5        989
    x[16]     OBJ       -547
    x[17]     c1        923
    x[17]     c2        564
    x[17]     c3        973
    x[17]     c4        634
    x[17]     c5        868
    x[17]     OBJ       -906
    x[18]     c1        476
    x[18]     c2        659
    x[18]     c3        843
    x[18]     c4        50
    x[18]     c5        798
    x[18]     OBJ       -811
    x[19]     c1        891
    x[19]     c2        87
    x[19]     c3        460
    x[19]     c4        613
    x[19]     c5        945
    x[19]     OBJ       -828
    x[20]     c1        298
    x[20]     c2        368
    x[20]     c3        493
    x[20]     c4        653
    x[20]     c5        474
    x[20]     OBJ       -743
    x[21]     c1        176
    x[21]     c2        836
    x[21]     c3        772
    x[21]     c4        770
    x[21]     c5        829
    x[21]     OBJ       -217
    x[22]     c1        418
    x[22]     c2        294
    x[22]     c3        685
    x[22]     c4        637
    x[22]     c5        340
    x[22]     OBJ       -55
    x[23]     c1        382
    x[23]     c2        982
    x[23]     c3        683
    x[23]     c4        252
    x[23]     c5        136
    x[23]     OBJ       -491
    x[24]     c1        109
    x[24]     c2        711
    x[24]     c3        34
    x[24]     c4        811
    x[24]     c5        937
    x[24]     OBJ       -806
    x[25]     c1        756
    x[25]     c2        690
    x[25]     c3        657
    x[25]     c4        753
    x[25]     c5        105
    x[25]     OBJ       -838
    x[26]     c1        863
    x[26]     c2        410
    x[26]     c3        22
    x[26]     c4        486
    x[26]     c5        936
    x[26]     OBJ       -253
    x[27]     c1        247
    x[27]     c2        617
    x[27]     c3        753
    x[27]     c4        516
    x[27]     c5        271
    x[27]     OBJ       -271
    x[28]     c1        224
    x[28]     c2        683
    x[28]     c3        273
    x[28]     c4        191
    x[28]     c5        237
    x[28]     OBJ       -283
    x[29]     c1        263
    x[29]     c2        781
    x[29]     c3        98
    x[29]     c4        317
    x[29]     c5        533
    x[29]     OBJ       -775
    x[30]     c1        113
    x[30]     c2        112
    x[30]     c3        373
    x[30]     c4        451
    x[30]     c5        719
    x[30]     OBJ       -326
RHS
    rhs       c1        8033
    rhs       c2        7096
    rhs       c3        8360
    rhs       c4        7776
    rhs       c5        8074
RANGES
BOUNDS
 BV bounds    x[1]
 BV bounds    x[2]
 BV bounds    x[3]
 BV bounds    x[4]
 BV bounds    x[5]
 BV bounds    x[6]
 BV bounds    x[7]
 BV bounds    x[8]
 BV bounds    x[9]
 BV bounds    x[10]
 BV bounds    x[11]
 BV bounds    x[12]
 BV bounds    x[13]
 BV bounds    x[14]
 BV bounds    x[15]
 BV bounds    x[16]
 BV bounds    x[17]
 BV bounds    x[18]
 BV bounds    x[19]
 BV bounds    x[20]
 BV bounds    x[21]
 BV bounds    x[22]
 BV bounds    x[23]
 BV bounds    x[24]
 BV bounds    x[25]
 BV bounds    x[26]
 BV bounds    x[27]
 BV bounds    x[28]
 BV bounds    x[29]
 BV bounds    x[30]
ENDATA
